c Generated map
c Size: 9 * 9, weights in range: 1 to 10, walls: True, with ratio 0.1
c dim 8 of 8
c
p sp 81 114
c graph contains 81 nodes and 114 arcs
c
a 1 10 3
a 10 1 3
a 1 2 2
a 2 1 2
a 2 11 9
a 11 2 9
a 2 3 10
a 3 2 10
a 3 12 9
a 12 3 9
a 3 4 4
a 4 3 4
a 4 13 4
a 13 4 4
a 4 5 6
a 5 4 6
a 5 14 4
a 14 5 4
a 5 6 6
a 6 5 6
a 6 15 8
a 15 6 8
a 6 7 10
a 7 6 10
a 7 8 3
a 8 7 3
a 8 17 7
a 17 8 7
a 8 9 10
a 9 8 10
a 10 19 4
a 19 10 4
a 10 11 7
a 11 10 7
a 11 12 5
a 12 11 5
a 12 21 3
a 21 12 3
a 12 13 9
a 13 12 9
a 13 22 9
a 22 13 9
a 13 14 1
a 14 13 1
a 14 23 3
a 23 14 3
a 14 15 2
a 15 14 2
a 15 24 8
a 24 15 8
a 17 26 3
a 26 17 3
a 19 28 2
a 28 19 2
a 21 22 10
a 22 21 10
a 22 31 5
a 31 22 5
a 22 23 5
a 23 22 5
a 23 32 6
a 32 23 6
a 23 24 9
a 24 23 9
a 24 33 1
a 33 24 1
a 24 25 3
a 25 24 3
a 25 34 9
a 34 25 9
a 25 26 10
a 26 25 10
a 26 27 10
a 27 26 10
a 27 36 8
a 36 27 8
a 28 37 2
a 37 28 2
a 28 29 3
a 29 28 3
a 29 38 8
a 38 29 8
a 31 40 3
a 40 31 3
a 31 32 8
a 32 31 8
a 32 41 1
a 41 32 1
a 32 33 9
a 33 32 9
a 33 42 1
a 42 33 1
a 33 34 2
a 34 33 2
a 34 43 4
a 43 34 4
a 36 45 7
a 45 36 7
a 37 46 10
a 46 37 10
a 37 38 5
a 38 37 5
a 38 47 4
a 47 38 4
a 38 39 1
a 39 38 1
a 39 48 6
a 48 39 6
a 39 40 2
a 40 39 2
a 40 49 5
a 49 40 5
a 40 41 1
a 41 40 1
a 41 42 8
a 42 41 8
a 42 51 1
a 51 42 1
a 42 43 5
a 43 42 5
a 43 52 6
a 52 43 6
a 43 44 7
a 44 43 7
a 44 53 8
a 53 44 8
a 44 45 7
a 45 44 7
a 45 54 10
a 54 45 10
a 46 55 8
a 55 46 8
a 46 47 5
a 47 46 5
a 47 56 6
a 56 47 6
a 47 48 1
a 48 47 1
a 48 57 6
a 57 48 6
a 48 49 2
a 49 48 2
a 49 58 3
a 58 49 3
a 51 60 1
a 60 51 1
a 51 52 3
a 52 51 3
a 52 61 8
a 61 52 8
a 52 53 3
a 53 52 3
a 53 54 1
a 54 53 1
a 54 63 5
a 63 54 5
a 55 64 10
a 64 55 10
a 55 56 9
a 56 55 9
a 56 65 7
a 65 56 7
a 56 57 2
a 57 56 2
a 57 66 1
a 66 57 1
a 57 58 5
a 58 57 5
a 58 67 8
a 67 58 8
a 58 59 4
a 59 58 4
a 59 68 4
a 68 59 4
a 59 60 6
a 60 59 6
a 60 69 9
a 69 60 9
a 60 61 7
a 61 60 7
a 61 70 1
a 70 61 1
a 63 72 5
a 72 63 5
a 64 73 6
a 73 64 6
a 64 65 3
a 65 64 3
a 65 74 5
a 74 65 5
a 65 66 5
a 66 65 5
a 66 75 1
a 75 66 1
a 66 67 6
a 67 66 6
a 67 68 4
a 68 67 4
a 68 77 7
a 77 68 7
a 68 69 10
a 69 68 10
a 69 78 3
a 78 69 3
a 69 70 7
a 70 69 7
a 70 79 6
a 79 70 6
a 70 71 4
a 71 70 4
a 71 80 4
a 80 71 4
a 71 72 1
a 72 71 1
a 72 81 8
a 81 72 8
a 73 74 3
a 74 73 3
a 74 75 6
a 75 74 6
a 77 78 1
a 78 77 1
a 78 79 1
a 79 78 1
a 79 80 7
a 80 79 7
a 80 81 4
a 81 80 4
